NAME : portcgen-25-50
COMMENT : portcgen N=25, seed=50
TYPE : TSP
DIMENSION : 25
EDGE_WEIGHT_TYPE : EUC_2D
NODE_COORD_SECTION
1 84 91
2 61 66
3 96 96
4 87 89
5 90 99
6 99 63
7 93 78
8 83 67
9 91 75
10 91 59
11 80 50
12 65 68
13 82 90
14 67 95
15 79 92
16 72 64
17 65 90
18 74 58
19 66 92
20 97 53
21 81 84
22 82 72
23 59 41
24 82 66
25 90 55
